c FILE /home/rafael/Documents/HappySet/MIHS/inputs/happygen/output/graph_scale_free_k4_p0.3_v50_20241127_082428.txt
c SOURCE This is a scale-free graph formed for the happy graph colouring problem.
c DESCRIPTION It was generated using the problem generator of Rhyd Lewis
c
c GRAPH STATS
c Seed                             = -125209371
c Number of Nodes                  = 50
c Number of colours k              = 4
c Number of pre-assignments        = 15
c Number of links per new node     = 5
c Density                          = 0.191837
c 
c The degrees of nodes 1 to 50, respectively, are as follows 
c [27, 25, 23, 23, 21, 18, 18, 13, 13, 13, 12, 12, 11, 11, 10, 10, 10, 9, 9, 8, 8, 7, 7, 7, 7, 7, 
c  6, 6, 6, 6, 6, 6, 6, 6, 6, 6, 6, 5, 5, 5, 5, 5, 5, 5, 5, 5, 5, 5, 5, 5] 
c  
p edge 50 235 4
e 1 2
e 1 3
e 1 4
e 1 5
e 1 6
e 1 7
e 1 8
e 1 10
e 1 11
e 1 12
e 1 13
e 1 14
e 1 16
e 1 20
e 1 22
e 1 23
e 1 24
e 1 27
e 1 29
e 1 30
e 1 32
e 1 34
e 1 38
e 1 42
e 1 43
e 1 45
e 1 49
e 2 3
e 2 4
e 2 5
e 2 6
e 2 7
e 2 8
e 2 9
e 2 11
e 2 12
e 2 13
e 2 18
e 2 19
e 2 20
e 2 22
e 2 24
e 2 29
e 2 30
e 2 34
e 2 37
e 2 40
e 2 43
e 2 46
e 2 47
e 2 49
e 3 4
e 3 5
e 3 6
e 3 7
e 3 10
e 3 11
e 3 12
e 3 13
e 3 15
e 3 16
e 3 17
e 3 23
e 3 26
e 3 27
e 3 28
e 3 29
e 3 31
e 3 33
e 3 38
e 3 44
e 3 50
e 4 5
e 4 6
e 4 8
e 4 9
e 4 10
e 4 12
e 4 13
e 4 14
e 4 15
e 4 16
e 4 17
e 4 19
e 4 20
e 4 24
e 4 28
e 4 33
e 4 35
e 4 39
e 4 41
e 4 42
e 5 6
e 5 7
e 5 9
e 5 14
e 5 16
e 5 18
e 5 20
e 5 21
e 5 23
e 5 26
e 5 28
e 5 32
e 5 44
e 5 45
e 5 46
e 5 47
e 5 50
e 6 7
e 6 8
e 6 13
e 6 15
e 6 18
e 6 19
e 6 20
e 6 22
e 6 26
e 6 27
e 6 28
e 6 35
e 6 41
e 7 8
e 7 10
e 7 15
e 7 17
e 7 22
e 7 23
e 7 30
e 7 32
e 7 34
e 7 35
e 7 39
e 7 43
e 7 48
e 8 9
e 8 10
e 8 11
e 8 14
e 8 21
e 8 29
e 8 38
e 8 40
e 9 13
e 9 22
e 9 23
e 9 25
e 9 27
e 9 28
e 9 33
e 9 36
e 9 46
e 10 11
e 10 18
e 10 25
e 10 37
e 10 39
e 10 41
e 10 44
e 10 46
e 11 15
e 11 16
e 11 24
e 11 36
e 11 38
e 11 40
e 11 43
e 12 16
e 12 30
e 12 37
e 12 38
e 12 41
e 12 47
e 12 49
e 12 50
e 13 17
e 13 26
e 13 30
e 13 40
e 13 42
e 14 21
e 14 25
e 14 30
e 14 36
e 14 37
e 14 39
e 14 48
e 15 19
e 15 21
e 15 25
e 15 33
e 15 42
e 16 18
e 16 27
e 16 29
e 16 31
e 17 20
e 17 25
e 17 37
e 17 39
e 17 41
e 17 49
e 18 32
e 18 34
e 18 45
e 18 46
e 19 21
e 19 22
e 19 26
e 19 32
e 19 35
e 20 31
e 20 49
e 21 35
e 21 47
e 21 50
e 22 34
e 23 24
e 23 31
e 24 42
e 24 43
e 25 36
e 25 44
e 26 45
e 26 47
e 27 33
e 28 31
e 29 44
e 31 40
e 32 48
e 33 50
e 34 48
e 35 36
e 36 48
e 37 45
n 12 3
n 13 3
n 14 1
n 17 3
n 19 1
n 23 1
n 27 2
n 33 2
n 34 3
n 35 1
n 36 1
n 41 3
n 43 3
n 45 4
n 46 2
